Version identifier: 22.1.1.0 | 2022-11-28 | 9160aff4d
CPXPARAM_ClockType                               1
CPXPARAM_Read_DataCheck                          1
CPXPARAM_Threads                                 1
CPXPARAM_TimeLimit                               7200
CPXPARAM_MIP_Tolerances_AbsMIPGap                0
CPXPARAM_MIP_Tolerances_MIPGap                   0
CPXPARAM_MIP_Tolerances_Integrality              0
Tried aggregator 9 times.
MIP Presolve eliminated 149741 rows and 108043 columns.
MIP Presolve modified 19889 coefficients.
Aggregator did 28912 substitutions.
Reduced MIP has 26143 rows, 16840 columns, and 101567 nonzeros.
Reduced MIP has 16840 binaries, 0 generals, 0 SOSs, and 0 indicators.
Presolve time = 0.71 sec. (519.00 ticks)
Found incumbent of value -27228.000000 after 0.85 sec. (623.39 ticks)
Probing time = 0.02 sec. (6.11 ticks)
Tried aggregator 1 time.
Detecting symmetries...
MIP Presolve modified 4 coefficients.
Reduced MIP has 26143 rows, 16840 columns, and 101563 nonzeros.
Reduced MIP has 16840 binaries, 0 generals, 0 SOSs, and 0 indicators.
Presolve time = 0.11 sec. (62.30 ticks)
Probing time = 0.01 sec. (6.09 ticks)
Clique table members: 3081.
MIP emphasis: balance optimality and feasibility.
MIP search method: dynamic search.
Parallel mode: none, using 1 thread.
Root relaxation solution time = 1.03 sec. (583.77 ticks)

        Nodes                                         Cuts/
   Node  Left     Objective  IInf  Best Integer    Best Bound    ItCnt     Gap

*     0+    0                       -27228.0000    15820.0000           158.10%
      0     0     7849.0000  5149   -27228.0000     7849.0000    10078  128.83%
      0     0     6772.2222  1308   -27228.0000    Cuts: 1305    13800  124.87%
      0     0     6748.6667  1160   -27228.0000     Cuts: 521    14491  124.79%
      0     0     6748.0000  1152   -27228.0000     Cuts: 345    14937  124.78%
*     0+    0                         4216.0000     6748.0000            60.06%
      0     0        cutoff           4216.0000     6748.0000    14937   60.06%
      0     0     6748.0000  1267     4216.0000     Cuts: 378    15595   60.06%
      0     0     6748.0000   256     4216.0000   ZeroHalf: 1    15603   60.06%
      0     0     6748.0000   267     4216.0000      Cuts: 72    15841   60.06%
*     0+    0                         4378.0000     6748.0000            54.13%
*     0+    0                         4982.0000     6748.0000            35.45%
      0     0        cutoff           4982.0000     6748.0000    15841   35.45%
*     0+    0                         5860.0000     6748.0000            15.15%
*     0+    0                         6408.0000     6748.0000             5.31%
      0     0        cutoff           6408.0000     6748.0000    15841    5.31%
      0     2     6748.0000   181     6408.0000     6748.0000    15841    5.31%
Elapsed time = 12.97 sec. (8806.34 ticks, tree = 0.01 MB, solutions = 6)
     11    13     6748.0000   280     6408.0000     6748.0000    16676    5.31%
     30    32     6748.0000   162     6408.0000     6748.0000    17401    5.31%
*    48     1      integral     0     6748.0000     6748.0000    17835    0.00%

GUB cover cuts applied:  1
Clique cuts applied:  85
Cover cuts applied:  5
Implied bound cuts applied:  3
Mixed integer rounding cuts applied:  2
Zero-half cuts applied:  1233
Gomory fractional cuts applied:  17

Root node processing (before b&c):
  Real time             =   12.97 sec. (8810.02 ticks)
Sequential b&c:
  Real time             =    0.88 sec. (725.30 ticks)
                          ------------
Total (root+branch&cut) =   13.85 sec. (9535.32 ticks)
Solution is feasible.

---------------------
@@@ MIP_optimal
>>> Benchmark mc2024_track1_015.cnf k 5 OPT 6748 TimeCost 397.29365825653076 TimeSolve 14.05320119857788 TimeRead 0.012114286422729492 TimeTrans 383.22834277153015
